30 10000

1 6 224
2 9 82
3 2 175
4 9 299
5 8 32
6 16 84
7 17 3
8 2 15
9 15 218
10 10 64
11 6 160
12 7 92
13 13 62
14 21 131
15 3 171
16 13 176
17 25 234
18 30 243
19 23 242
20 11 14
21 3 48
22 17 72
23 20 197
24 17 174
25 5 176
26 14 78
27 11 69
28 3 11
29 19 293
30 8 95
